words_hard_train/5565.qaiger
aag 56 16 0 1 40
2
4
12
14
18
32
40
42
46
48
52
78
86
88
96
98
113
6 3 5
8 2 4
10 7 9
16 12 14
20 16 18
22 10 21
24 11 20
26 23 25
28 17 19
30 29 21
34 30 33
36 31 32
38 35 37
44 41 43
50 47 49
54 53 12
56 51 55
58 52 13
60 56 59
62 45 60
64 40 42
66 46 48
68 65 67
70 62 68
72 39 70
74 13 15
76 75 17
80 77 79
82 76 78
84 81 83
90 87 89
92 86 88
94 91 93
100 96 98
102 97 99
104 101 103
106 94 104
108 84 106
110 72 108
112 27 111
i0 1 x1[7]
i1 2 y1[7]
i2 1 x1[4]
i3 1 x1[5]
i4 1 x1[6]
i5 2 y1[6]
i6 1 x1[0]
i7 2 y1[0]
i8 1 x1[2]
i9 2 y1[2]
i10 2 y1[4]
i11 2 y1[5]
i12 1 x1[1]
i13 2 y1[1]
i14 1 x1[3]
i15 2 y1[3]
o0 bv[0]
c
simplified
  <=
    unary minus
      1
    xor
      2 y1
      subtract
        1 x1
        -16
