words_hard_train/5565.qaiger.qdimacs
p cnf 56 121
a 1 6 7 9 43 48 20 23 0
e 2 3 4 5 8 10 11 12 13 14 15 16 17 18 19 21 22 24 25 26 27 28 29 30 31 32 33 34 35 36 37 38 39 40 41 42 44 45 46 47 49 50 51 52 53 54 55 56 0
1 2 3 0
-1 -3 0
-2 -3 0
-1 -2 4 0
1 -4 0
2 -4 0
3 4 5 0
-3 -5 0
-4 -5 0
-6 -7 8 0
6 -8 0
7 -8 0
-8 -9 10 0
8 -10 0
9 -10 0
-5 10 11 0
5 -11 0
-10 -11 0
5 -10 12 0
-5 -12 0
10 -12 0
11 12 13 0
-11 -13 0
-12 -13 0
8 9 14 0
-8 -14 0
-9 -14 0
14 10 15 0
-14 -15 0
-10 -15 0
-15 16 17 0
15 -17 0
-16 -17 0
15 -16 18 0
-15 -18 0
16 -18 0
17 18 19 0
-17 -19 0
-18 -19 0
20 21 22 0
-20 -22 0
-21 -22 0
23 24 25 0
-23 -25 0
-24 -25 0
26 -6 27 0
-26 -27 0
6 -27 0
25 27 28 0
-25 -28 0
-27 -28 0
-26 6 29 0
26 -29 0
-6 -29 0
-28 29 30 0
28 -30 0
-29 -30 0
22 -30 31 0
-22 -31 0
30 -31 0
-20 -21 32 0
20 -32 0
21 -32 0
-23 -24 33 0
23 -33 0
24 -33 0
32 33 34 0
-32 -34 0
-33 -34 0
-31 -34 35 0
31 -35 0
34 -35 0
19 -35 36 0
-19 -36 0
35 -36 0
6 7 37 0
-6 -37 0
-7 -37 0
37 8 38 0
-37 -38 0
-8 -38 0
38 39 40 0
-38 -40 0
-39 -40 0
-38 -39 41 0
38 -41 0
39 -41 0
40 41 42 0
-40 -42 0
-41 -42 0
43 44 45 0
-43 -45 0
-44 -45 0
-43 -44 46 0
43 -46 0
44 -46 0
45 46 47 0
-45 -47 0
-46 -47 0
-48 -49 50 0
48 -50 0
49 -50 0
48 49 51 0
-48 -51 0
-49 -51 0
50 51 52 0
-50 -52 0
-51 -52 0
-47 -52 53 0
47 -53 0
52 -53 0
-42 -53 54 0
42 -54 0
53 -54 0
-36 -54 55 0
36 -55 0
54 -55 0
13 55 56 0
-13 -56 0
-55 -56 0
-56 0
